NAME: tsp15_12
COMMENT: 15-tsp problem (Padberg/Rinaldi)
TYPE: TSP
DIMENSION: 15
EDGE_WEIGHT_TYPE : EUC_2D
NODE_COORD_SECTION
1 5 6
2 13 17
3 39 37
4 34 31
5 28 19
6 6 21
7 29 37
8 5 4
9 27 16
10 31 1
11 31 18
12 9 37
13 37 3
14 13 29
15 5 39
